NAME : single
TYPE : ATSP
DIMENSION : 24
EDGE_WEIGHT_TYPE : EXPLICIT
EDGE_WEIGHT_FORMAT : FULL_MATRIX
EDGE_WEIGHT_SECTION
0 50200 50200 50200 50200 50200 50200 50200 50300 50300 50300 1700 1700 50300 1700 1600 50300 700 900 600 100 100 300 200 
0 0 0 100 200 300 200 300 600 700 800 900 800 50000 50000 50000 1100 50000 50000 50000 50000 50000 50000 50000 
0 0 0 0 100 200 200 300 600 700 800 900 800 50000 50000 50000 50000 50000 50000 50000 50000 50000 50000 50000 
0 100 100 0 0 100 200 100 400 500 600 700 600 50000 50000 50000 900 50000 50000 50000 50000 50000 50000 50000 
0 200 100 100 0 100 100 200 500 500 700 800 700 50000 50000 50000 1000 50000 50000 50000 50000 50000 50000 50000 
0 300 300 100 200 0 200 0 300 400 500 600 500 50000 50000 50000 800 50000 50000 50000 50000 50000 50000 50000 
0 200 200 200 100 200 0 300 600 600 700 800 800 50000 50000 50000 1000 50000 50000 50000 50000 50000 50000 50000 
0 300 300 100 200 0 300 0 300 300 500 500 500 50000 50000 50000 700 50000 50000 50000 50000 50000 50000 50000 
0 600 600 400 500 300 600 300 0 100 0 100 200 400 300 400 400 50000 50000 50000 50000 50000 50000 50000 
0 700 700 500 500 400 600 300 0 0 0 200 300 400 400 400 500 50000 50000 50000 50000 50000 50000 50000 
0 800 800 600 700 500 700 500 100 200 0 100 200 200 100 200 200 50000 50000 50000 50000 50000 50000 50000 
0 900 900 700 800 600 800 500 200 300 100 0 100 200 100 100 100 50000 50000 50000 50000 50000 50000 50000 
0 800 800 600 700 500 800 500 200 200 200 100 0 200 200 200 200 50000 50000 50000 50000 50000 50000 50000 
0 50000 50000 50000 50000 50000 50000 50000 400 400 200 200 200 0 0 200 300 50000 50000 50000 50000 50000 50000 50000 
0 50000 50000 50000 50000 50000 50000 50000 300 400 100 100 200 0 0 200 200 50000 50000 50000 50000 50000 50000 50000 
0 50000 50000 50000 50000 50000 50000 50000 400 400 200 100 200 200 200 0 0 600 50000 800 50000 50000 50000 50000 
0 1100 50000 900 1000 800 1000 700 400 500 200 100 200 300 200 0 0 600 50000 800 50000 50000 50000 50000 
0 50000 50000 50000 50000 50000 50000 50000 50000 50000 50000 50000 50000 50000 50000 600 600 0 200 100 500 400 400 500 
0 50000 50000 50000 50000 50000 50000 50000 50000 50000 50000 50000 50000 50000 50000 50000 50000 100 0 200 500 500 500 600 
0 50000 50000 50000 50000 50000 50000 50000 50000 50000 50000 50000 50000 50000 50000 800 800 100 200 0 300 200 200 300 
0 50000 50000 50000 50000 50000 50000 50000 50000 50000 50000 50000 50000 50000 50000 50000 50000 500 500 300 0 0 100 200 
0 50000 50000 50000 50000 50000 50000 50000 50000 50000 50000 50000 50000 50000 50000 50000 50000 400 500 200 0 0 0 0 
0 50000 50000 50000 50000 50000 50000 50000 50000 50000 50000 50000 50000 50000 50000 50000 50000 400 500 200 100 100 0 100 
0 50000 50000 50000 50000 50000 50000 50000 50000 50000 50000 50000 50000 50000 50000 50000 50000 500 600 300 200 100 200 0 
